c preprocessed version of BN_111, 49 vertices, 731 edges
p td 49 731
0 1
0 2
0 3
0 4
0 5
0 6
0 7
0 8
0 9
0 10
0 11
0 12
0 13
0 20
0 36
0 14
0 26
0 27
0 21
0 22
0 35
0 25
0 23
0 30
0 24
0 31
0 15
0 32
0 33
1 2
1 3
1 4
1 5
1 6
1 7
1 8
1 9
1 10
1 11
1 12
1 13
1 20
1 36
1 26
1 27
1 21
1 22
1 17
1 35
1 28
1 25
1 23
1 30
1 24
1 31
1 29
1 16
1 32
1 18
1 33
2 3
2 4
2 5
2 6
2 7
2 8
2 9
2 10
2 11
2 12
2 13
2 20
2 26
2 27
2 21
2 17
2 28
2 25
2 23
2 24
2 34
2 29
2 16
2 18
2 19
3 4
3 5
3 6
3 7
3 8
3 9
3 10
3 11
3 12
3 13
3 20
3 14
3 26
3 27
3 21
3 22
3 17
3 35
3 28
3 30
3 34
3 29
3 15
3 16
3 18
3 19
3 33
4 5
4 6
4 7
4 8
4 9
4 10
4 11
4 12
4 13
4 20
4 14
4 26
4 27
4 21
4 22
4 17
4 28
4 25
4 30
4 31
4 29
4 16
4 19
4 33
5 6
5 7
5 8
5 9
5 10
5 11
5 12
5 13
5 20
5 36
5 26
5 27
5 21
5 17
5 35
5 25
5 23
5 31
5 34
5 16
5 32
5 18
5 33
6 7
6 8
6 9
6 10
6 11
6 12
6 13
6 20
6 36
6 14
6 26
6 27
6 21
6 22
6 17
6 25
6 23
6 30
6 24
6 31
6 34
6 15
6 16
6 18
6 19
6 33
7 8
7 9
7 10
7 11
7 12
7 36
7 26
7 27
7 35
7 28
7 30
7 34
7 29
8 9
8 10
8 11
8 12
8 13
8 20
8 36
8 14
8 26
8 27
8 17
8 25
8 30
8 31
8 34
8 15
8 32
8 33
9 10
9 11
9 12
9 20
9 26
9 27
9 21
9 35
9 28
9 25
9 23
9 30
9 31
9 34
9 29
9 32
9 33
10 11
10 12
10 13
10 20
10 26
10 27
10 21
10 22
10 17
10 35
10 25
10 31
10 34
10 16
10 32
10 18
11 12
11 13
11 20
11 21
11 17
11 25
11 23
11 24
11 34
11 16
11 18
11 19
12 13
12 20
12 14
12 26
12 27
12 21
12 17
12 28
12 25
12 23
12 30
12 31
12 34
12 15
12 16
12 32
12 19
12 33
13 14
13 15
13 16
14 15
17 16
16 18
16 19
17 18
17 19
20 21
20 25
20 23
20 24
21 22
21 23
21 24
23 24
26 27
26 30
26 33
27 28
28 29
30 31
31 32
37 0
37 38
37 39
37 1
37 40
37 2
37 3
37 41
37 48
37 42
37 43
37 4
37 5
37 6
37 44
37 45
37 7
37 8
37 9
37 10
37 46
37 11
37 47
37 12
37 13
37 20
37 36
37 14
37 26
37 21
37 22
37 17
37 35
37 23
37 30
37 24
37 31
37 15
37 16
37 32
37 18
38 0
38 39
38 1
38 40
38 2
38 3
38 41
38 48
38 42
38 43
38 4
38 5
38 6
38 44
38 45
38 7
38 8
38 9
38 10
38 46
38 11
38 47
38 12
38 13
38 20
38 36
38 14
38 26
38 27
38 21
38 17
38 28
38 25
38 23
38 30
38 24
38 31
38 34
38 15
38 16
38 32
38 19
39 0
39 1
39 40
39 2
39 3
39 41
39 48
39 42
39 43
39 4
39 5
39 6
39 44
39 45
39 7
39 8
39 9
39 10
39 46
39 11
39 47
39 12
39 13
39 20
39 14
39 26
39 27
39 21
39 22
39 17
39 35
39 28
39 25
39 23
39 30
39 24
39 31
39 34
39 15
39 16
39 32
39 18
39 19
39 33
40 0
40 1
40 2
40 3
40 41
40 48
40 42
40 43
40 4
40 5
40 6
40 44
40 45
40 7
40 8
40 9
40 10
40 46
40 11
40 47
40 12
40 13
40 20
40 14
40 27
40 21
40 22
40 35
40 28
40 23
40 24
40 34
40 15
41 0
41 1
41 2
41 3
41 48
41 42
41 43
41 4
41 5
41 6
41 44
41 45
41 7
41 8
41 9
41 10
41 46
41 11
41 47
41 12
41 13
41 20
41 36
41 14
41 26
41 27
41 21
41 22
41 17
41 28
41 30
41 31
41 16
41 32
41 18
41 19
41 33
42 48
42 0
42 1
42 2
42 3
42 43
42 4
42 5
42 6
42 44
42 45
42 7
42 8
42 9
42 10
42 46
42 11
42 47
42 12
42 13
42 20
42 36
42 14
42 26
42 27
42 21
42 17
42 28
42 23
42 30
42 24
42 34
42 15
42 16
42 19
42 33
43 48
43 0
43 1
43 2
43 3
43 4
43 5
43 6
43 44
43 45
43 7
43 8
43 9
43 10
43 46
43 11
43 47
43 12
43 13
43 20
43 36
43 14
43 26
43 27
43 17
43 35
43 28
43 25
43 30
43 31
43 16
43 32
43 18
43 33
44 48
44 0
44 1
44 2
44 3
44 4
44 5
44 6
44 45
44 7
44 8
44 9
44 10
44 46
44 11
44 47
44 12
44 13
44 20
44 14
44 26
44 21
44 17
44 35
44 25
44 23
44 30
44 24
44 34
44 15
44 16
44 18
44 19
45 48
45 0
45 1
45 2
45 3
45 4
45 5
45 6
45 7
45 8
45 9
45 10
45 46
45 11
45 47
45 12
45 13
45 20
45 36
45 14
45 26
45 27
45 21
45 17
45 35
45 25
45 23
45 30
45 34
45 16
45 18
45 19
46 48
46 0
46 1
46 2
46 3
46 4
46 5
46 6
46 7
46 8
46 9
46 10
46 11
46 47
46 12
46 13
46 36
46 14
46 26
46 27
46 17
46 35
46 28
46 30
46 31
46 34
46 29
46 16
46 32
46 18
46 19
46 33
47 48
47 0
47 1
47 2
47 3
47 4
47 5
47 6
47 7
47 8
47 9
47 10
47 11
47 12
47 13
47 20
47 36
47 14
47 26
47 27
47 21
47 17
47 28
47 25
47 23
47 30
47 24
47 31
47 34
47 29
47 15
47 16
47 32
47 19
48 0
48 1
48 2
48 3
48 4
48 5
48 6
48 7
48 8
48 9
48 10
48 11
48 12
48 13
48 20
48 36
48 14
48 26
48 27
48 21
48 22
48 17
48 35
48 25
48 30
48 31
48 34
48 16
48 18
48 19
